2452383
19,59,90,43,17,40,99,80,60,91,37,57,9,20,33,21,50,76,38,62,56,10,96,30,69,53,49,68,63,70,1,47,83,14,15,23,7,95,48,84,92,86,67,88,28,54,94,26,11,87,82,73,81,22,51,78,61,58,16,27,35,2,64,85,8,5,89,3,72,36,42,97,41,6,75,93,77,18,32,13,44,55,31,74,45,4,66,46,71,98,65,39,24,34,52,12,29,79,25,19